3 100 1473
5 3 3 3 6 4 7 8 6 7
4 3 1
2 8 9 6
4 3 7
7
0 40.0 50.0 0.0 0.0 0 240
2 25.0 85.0 10.0 20.0 49 191 72 0 0 0 0 0 1 0 0 0 0
3 22.0 75.0 10.0 30.0 30 168 84 0 0 0 0 0 0 1 1 1 1
4 22.0 85.0 10.0 10.0 95 152 80 0 1 0 0 0 0 0 1 0 0
5 20.0 80.0 10.0 40.0 69 193 75 0 0 0 0 1 0 1 1 0 0
6 20.0 85.0 10.0 20.0 40 189 82 0 0 0 0 1 0 0 0 0 0
7 18.0 75.0 10.0 20.0 60 159 17 0 0 0 1 1 0 1 1 0 1
8 15.0 75.0 10.0 20.0 54 133 34 0 0 0 0 0 0 1 0 0 1
9 15.0 80.0 10.0 10.0 67 144 49 0 0 0 0 0 0 1 0 0 1
10 10.0 35.0 10.0 20.0 57 154 48 0 0 0 0 1 0 1 0 0 0
11 10.0 40.0 10.0 30.0 106 161 74 0 1 0 0 0 1 0 0 1 1
12 8.0 40.0 10.0 40.0 33 152 26 1 0 1 0 0 0 0 0 0 1
13 8.0 45.0 10.0 20.0 32 148 48 0 0 0 0 1 0 0 0 0 1
14 5.0 35.0 10.0 10.0 53 191 81 0 0 0 0 0 1 0 0 0 1
15 5.0 45.0 10.0 10.0 35 194 15 0 0 1 1 0 0 0 0 1 0
16 2.0 40.0 10.0 20.0 39 163 66 0 0 1 0 0 0 0 0 0 0
17 0.0 40.0 10.0 20.0 41 141 14 0 0 0 0 0 1 0 0 0 0
18 0.0 45.0 10.0 20.0 51 189 37 0 0 0 0 0 1 1 0 0 0
19 44.0 5.0 10.0 20.0 73 130 63 0 0 0 0 0 0 1 0 0 0
20 42.0 10.0 10.0 40.0 40 148 66 0 0 0 1 0 0 0 1 0 0
21 42.0 15.0 10.0 10.0 94 179 57 0 0 0 0 0 1 0 0 0 0
22 40.0 5.0 10.0 10.0 45 161 9 0 0 1 0 0 0 0 0 0 0
23 40.0 15.0 10.0 40.0 64 149 95 0 0 0 0 0 1 0 0 1 0
24 38.0 5.0 10.0 30.0 45 164 6 1 0 0 0 0 0 1 0 0 0
25 38.0 15.0 10.0 10.0 51 194 2 0 0 0 0 0 1 0 0 0 0
26 35.0 5.0 10.0 20.0 45 183 52 0 0 1 0 0 0 1 0 0 0
27 95.0 30.0 10.0 30.0 90 169 13 0 0 1 1 0 0 1 0 1 0
28 95.0 35.0 10.0 20.0 57 172 55 0 0 0 0 0 0 1 0 0 1
29 92.0 30.0 10.0 10.0 55 174 26 0 0 1 0 0 0 0 0 0 0
30 90.0 35.0 10.0 10.0 52 174 4 0 0 0 1 0 0 0 1 0 0
31 88.0 30.0 10.0 10.0 52 147 34 0 0 0 0 0 0 1 1 0 0
32 88.0 35.0 10.0 20.0 50 172 55 0 0 0 0 0 0 0 1 0 0
33 87.0 30.0 10.0 10.0 61 178 24 0 0 0 0 0 1 0 0 0 0
34 85.0 25.0 10.0 10.0 51 178 48 0 0 0 1 0 1 0 0 1 1
35 85.0 35.0 10.0 30.0 83 168 92 0 0 1 0 1 0 0 0 0 0
36 67.0 85.0 10.0 20.0 57 185 89 0 0 1 1 0 0 0 0 1 1
37 65.0 85.0 10.0 40.0 43 186 25 0 0 0 0 0 0 0 0 0 1
38 65.0 82.0 10.0 10.0 95 182 30 0 0 0 0 1 1 1 1 0 0
39 62.0 80.0 10.0 30.0 38 141 94 0 0 0 0 0 1 0 0 0 0
40 60.0 80.0 10.0 10.0 36 193 95 1 1 0 0 0 0 0 0 0 0
41 60.0 85.0 10.0 30.0 61 138 76 0 0 0 0 0 0 1 0 0 0
42 58.0 75.0 10.0 20.0 49 164 3 1 0 0 0 1 0 0 0 0 1
43 55.0 80.0 10.0 10.0 33 180 36 0 0 0 0 0 0 0 0 1 0
44 55.0 85.0 10.0 20.0 100 185 20 0 0 0 0 1 0 0 1 1 0
45 55.0 82.0 10.0 10.0 35 142 13 0 0 1 0 1 0 1 0 0 0
46 20.0 82.0 10.0 10.0 37 192 79 1 0 0 0 0 0 0 0 1 0
47 18.0 80.0 10.0 10.0 71 184 94 0 0 0 0 0 1 0 0 0 0
48 2.0 45.0 10.0 10.0 38 191 82 1 0 0 0 1 0 0 0 0 0
49 42.0 5.0 10.0 10.0 50 184 17 0 0 1 0 0 0 0 1 0 0
50 42.0 12.0 10.0 10.0 99 138 82 0 0 0 0 0 1 0 0 1 0
51 72.0 35.0 10.0 30.0 83 178 73 0 0 0 0 0 0 0 1 0 0
52 55.0 20.0 10.0 19.0 45 150 20 0 1 0 0 1 0 0 0 1 0
53 25.0 30.0 10.0 3.0 25 150 60 0 0 0 0 0 0 0 1 1 1
54 20.0 50.0 10.0 5.0 68 143 15 0 1 0 0 0 0 0 1 0 0
55 55.0 60.0 10.0 16.0 107 200 94 0 0 0 0 0 1 0 0 0 0
56 30.0 60.0 10.0 16.0 95 214 50 0 1 0 0 0 0 0 0 0 0
57 50.0 35.0 10.0 19.0 91 198 92 0 0 0 0 0 0 1 1 1 0
58 30.0 25.0 10.0 23.0 56 165 37 0 1 0 1 0 1 0 0 0 0
59 15.0 10.0 10.0 20.0 51 182 24 0 0 0 0 0 0 0 0 1 0
60 10.0 20.0 10.0 19.0 42 187 86 0 0 0 0 0 1 0 0 0 0
61 15.0 60.0 10.0 17.0 62 203 70 0 0 0 0 1 0 0 1 0 0
62 45.0 65.0 10.0 9.0 37 124 24 0 0 0 0 0 1 0 0 0 0
63 65.0 35.0 10.0 3.0 29 168 37 0 0 0 0 0 1 0 0 0 0
64 65.0 20.0 10.0 6.0 39 190 99 0 1 0 1 0 1 0 0 0 1
65 45.0 30.0 10.0 17.0 20 139 20 0 0 0 0 0 0 0 0 0 1
66 35.0 40.0 10.0 16.0 11 150 47 0 0 0 1 1 0 0 0 0 0
67 41.0 37.0 10.0 16.0 97 198 76 0 0 0 0 1 0 0 0 1 0
68 64.0 42.0 10.0 9.0 31 138 93 0 0 0 0 1 1 0 0 0 1
69 40.0 60.0 10.0 21.0 101 216 66 0 1 0 0 0 0 0 0 1 0
70 31.0 52.0 10.0 27.0 9 139 74 1 0 0 0 0 1 0 0 0 0
71 35.0 69.0 10.0 23.0 30 210 50 0 0 0 0 1 0 0 1 0 0
72 65.0 55.0 10.0 14.0 30 129 91 0 0 0 1 0 0 0 0 0 0
73 63.0 65.0 10.0 8.0 27 202 97 0 1 0 1 0 0 0 0 0 1
74 2.0 60.0 10.0 5.0 46 137 83 0 0 0 1 1 0 0 0 0 1
75 20.0 20.0 10.0 8.0 71 193 64 0 0 0 0 0 1 0 0 0 0
76 5.0 5.0 10.0 16.0 57 165 41 0 1 0 0 0 0 0 0 1 0
77 60.0 12.0 10.0 31.0 48 131 18 0 0 0 1 0 1 1 0 0 0
78 23.0 3.0 10.0 7.0 49 180 54 0 0 0 0 0 1 0 0 0 0
79 8.0 56.0 10.0 27.0 47 162 9 0 1 0 0 0 0 0 0 0 0
80 6.0 68.0 10.0 30.0 65 142 26 0 0 0 0 0 1 0 0 0 0
81 47.0 47.0 10.0 13.0 93 222 7 0 0 0 0 0 1 0 0 0 0
82 49.0 58.0 10.0 10.0 78 123 57 0 0 0 0 1 0 0 0 0 0
83 27.0 43.0 10.0 9.0 14 140 21 1 0 0 1 1 0 0 0 0 0
84 37.0 31.0 10.0 14.0 19 172 35 0 0 0 0 0 1 0 0 0 0
85 57.0 29.0 10.0 18.0 73 148 33 0 0 0 0 0 0 0 0 1 0
86 63.0 23.0 10.0 2.0 59 144 51 1 0 0 0 1 0 0 0 0 0
87 21.0 24.0 10.0 28.0 63 140 25 0 0 0 0 0 0 0 0 1 0
88 12.0 24.0 10.0 13.0 91 118 23 0 0 0 0 0 0 1 0 0 0
89 24.0 58.0 10.0 19.0 27 136 2 0 0 0 0 0 0 0 0 0 1
90 67.0 5.0 10.0 25.0 52 177 21 0 0 0 0 0 1 0 0 0 0
91 37.0 47.0 10.0 6.0 53 148 38 1 0 0 0 0 0 0 1 0 0
92 49.0 42.0 10.0 13.0 89 217 26 1 0 0 0 0 0 0 1 0 0
93 53.0 43.0 10.0 14.0 14 177 97 0 0 0 0 0 1 0 1 0 0
94 61.0 52.0 10.0 3.0 50 208 83 0 0 1 0 1 0 0 0 0 0
95 57.0 48.0 10.0 23.0 76 143 22 0 0 0 0 1 0 0 1 0 0
96 56.0 37.0 10.0 6.0 20 159 77 0 1 0 0 0 1 0 0 0 0
97 55.0 54.0 10.0 26.0 105 188 9 0 0 0 0 0 1 0 0 0 0
98 4.0 18.0 10.0 35.0 104 165 77 0 0 0 0 1 0 0 1 0 0
99 26.0 52.0 10.0 9.0 14 136 18 1 0 0 0 0 0 0 0 1 0
100 26.0 35.0 10.0 15.0 42 141 23 1 0 0 0 0 0 0 0 0 0
101 31.0 67.0 10.0 3.0 43 210 95 0 0 1 1 0 0 0 0 0 0